Route #1: 88 55 68 0 66 56 91 80
Route #2: 65 64 69 0 41 37 35 72 54 96 0 83 24 48 21 25 77 58
Route #3: 23 18 76 51 0 98 53 10 13 17 12
Route #4: 19 49 22 20 0 95 32 26 31 34 93
Route #5: 14 47 16 15 11 0 78 73 79 8 6 0 84 85 89 50 94
Route #6: 45 42 39 36 44 61 81 0 1 3 5 46 4
Route #7: 99 9 87 86 57 0 90 82 59 97 75 74 52
Route #8: 92 63 33 28 27 29 30 62 67 0 71 38 40 43 0 60 7 2 100 70
Cost: 18417
Optimal: True
